%mem=100GB
%nproc=28
#p opt(nomicro,recalc=5) freq geom=conn external="/share/home/jwweng/XO/stable20240408/external_uxo.py" nosymm

handle gaussian file - write gjf file

0 1
 C     -0.088139200000     1.487640100000     1.143507700000
 C     -0.088139200000     1.487640100000    -1.143507700000
 C      1.235532100000     1.224608600000     0.705088600000
 C      1.235532100000     1.224608600000    -0.705088600000
 C     -0.909283900000     1.629749600000     0.000000000000
 C      2.179206700000     0.573089500000     1.477412000000
 C      2.179206700000     0.573089500000    -1.477412000000
 C     -0.554788000000     1.139752800000     2.395315600000
 C     -0.554788000000     1.139752800000    -2.395315600000
 C     -2.286228500000     1.445596500000     0.000000000000
 C     -1.999270500000     1.087945500000    -2.473679200000
 C     -1.999270500000     1.087945500000     2.473679200000
 C      3.234666200000    -0.048366100000    -0.707720000000
 C      3.234666200000    -0.048366100000     0.707720000000
 C      1.815592500000     0.501287700000     2.891360600000
 C      1.815592500000     0.501287700000    -2.891360600000
 C      0.509146000000     0.773705300000     3.330268100000
 C      0.509146000000     0.773705300000    -3.330268100000
 C     -3.937313600000    -0.541561700000     3.547614100000
 C     -3.937313600000    -0.541561700000    -3.547614100000
 C     -2.832263700000     1.274103400000     1.343654200000
 C     -2.832263700000     1.274103400000    -1.343654200000
 C     -4.786410800000    -0.269313400000     2.472784500000
 C     -4.786410800000    -0.269313400000    -2.472784500000
 C      4.382672300000    -2.529248100000    -0.698166500000
 C      4.382672300000    -2.529248100000     0.698166500000
 C      2.804950500000     1.458641200000     5.246224400000
 C      2.804950500000     1.458641200000    -5.246224400000
 C      1.507846300000     1.727858900000     5.683833000000
 C      1.507846300000     1.727858900000    -5.683833000000
 C      1.276933100000     2.738839000000     6.621943900000
 C      1.276933100000     2.738839000000    -6.621943900000
 C      3.882491600000     2.198444800000    -5.743368500000
 C      3.882491600000     2.198444800000     5.743368500000
 C      4.340038900000    -3.736441100000     1.402027200000
 C      4.340038900000    -3.736441100000    -1.402027200000
 C     -4.065852800000    -1.735318000000     4.263438400000
 C     -4.065852800000    -1.735318000000    -4.263438400000
 C     -5.777784400000    -1.185751000000     2.110775900000
 C     -5.777784400000    -1.185751000000    -2.110775900000
 C     -5.078085900000    -2.631806000000    -3.922494100000
 C     -5.078085900000    -2.631806000000     3.922494100000
 C     -5.933010800000    -2.356312200000     2.852128000000
 C     -5.933010800000    -2.356312200000    -2.852128000000
 C      4.338549900000    -4.940132100000     0.698625800000
 C      4.338549900000    -4.940132100000    -0.698625800000
 C      3.655721400000     3.176931100000    -6.710048500000
 C      3.655721400000     3.176931100000     6.710048500000
 C      2.356575700000     3.446550400000     7.148012700000
 C      2.356575700000     3.446550400000    -7.148012700000
 S     -2.744466800000     0.673577800000    -4.029828500000
 S     -2.744466800000     0.673577800000     4.029828500000
 S      4.477481900000    -0.986745500000     1.563566400000
 S      4.477481900000    -0.986745500000    -1.563566400000
 S      0.158032300000     0.754239900000     5.074889700000
 S      0.158032300000     0.754239900000    -5.074889700000
 S      3.085314600000     0.146967300000     4.087144100000
 S      3.085314600000     0.146967300000    -4.087144100000
 S     -4.587690900000     1.262163600000     1.612410700000
 S     -4.587690900000     1.262163600000    -1.612410700000
 H     -6.423800000000    -0.971746900000     1.265511200000
 H     -6.423800000000    -0.971746900000    -1.265511200000
 H      0.260852700000     2.956312600000     6.937089200000
 H      0.260852700000     2.956312600000    -6.937089200000
 H      4.315241500000    -3.724256400000    -2.487431200000
 H      4.315241500000    -3.724256400000     2.487431200000
 H      4.885143500000     1.997576900000     5.378078200000
 H      4.885143500000     1.997576900000    -5.378078200000
 H     -3.385415600000    -1.947238000000    -5.082560900000
 H     -3.385415600000    -1.947238000000     5.082560900000
 H     -6.714590100000    -3.061432800000     2.585075700000
 H     -6.714590100000    -3.061432800000    -2.585075700000
 H     -5.192812600000    -3.551869800000    -4.487694100000
 H     -5.192812600000    -3.551869800000     4.487694100000
 H      4.322654800000    -5.879561900000    -1.243093400000
 H      4.322654800000    -5.879561900000     1.243093400000
 H      4.493472500000     3.739585300000     7.111113600000
 H      4.493472500000     3.739585300000    -7.111113600000
 H      2.181334900000     4.219605900000    -7.890266000000
 H      2.181334900000     4.219605900000     7.890266000000

 1 3 1.0 5 2.0 8 1.0 
 2 4 1.0 5 1.0 9 2.0 
 3 4 1.0 6 2.0 
 4 7 2.0 
 5 10 1.0 
 6 14 1.0 15 1.0 
 7 13 1.0 16 1.0 
 8 12 2.0 17 1.0 
 9 11 1.0 18 1.0 
 10 21 2.0 22 1.0 
 11 22 2.0 51 1.0 
 12 21 1.0 52 1.0 
 13 14 2.0 54 1.0 
 14 53 1.0 
 15 17 2.0 57 1.0 
 16 18 2.0 58 1.0 
 17 55 1.0 
 18 56 1.0 
 19 23 1.0 37 2.0 52 1.0 
 20 24 2.0 38 1.0 51 1.0 
 21 59 1.0 
 22 60 1.0 
 23 39 2.0 59 1.0 
 24 40 1.0 60 1.0 
 25 26 2.0 36 1.0 54 1.0 
 26 35 1.0 53 1.0 
 27 29 1.0 34 2.0 57 1.0 
 28 30 1.0 33 2.0 58 1.0 
 29 31 2.0 55 1.0 
 30 32 2.0 56 1.0 
 31 49 1.0 63 1.0 
 32 50 1.0 64 1.0 
 33 47 1.0 68 1.0 
 34 48 1.0 67 1.0 
 35 45 2.0 66 1.0 
 36 46 2.0 65 1.0 
 37 42 1.0 70 1.0 
 38 41 2.0 69 1.0 
 39 43 1.0 61 1.0 
 40 44 2.0 62 1.0 
 41 44 1.0 73 1.0 
 42 43 2.0 74 1.0 
 43 71 1.0 
 44 72 1.0 
 45 46 1.0 76 1.0 
 46 75 1.0 
 47 50 2.0 78 1.0 
 48 49 2.0 77 1.0 
 49 80 1.0 
 50 79 1.0 
 51 
 52 
 53 
 54 
 55 
 56 
 57 
 58 
 59 
 60 
 61 
 62 
 63 
 64 
 65 
 66 
 67 
 68 
 69 
 70 
 71 
 72 
 73 
 74 
 75 
 76 
 77 
 78 
 79 
 80 







