%mem=100GB
%nproc=28
#p opt(nomicro,recalc=5) freq geom=conn external="/share/home/jwweng/XO/stable20240408/external_uxo.py" nosymm

handle gaussian file - write gjf file with lines

0 1
 C     -2.137756100000     3.398036000000     0.404267500000
 C     -2.510449200000     2.091171900000     2.362480800000
 C     -0.995608600000    -1.020731400000     3.489354700000
 C     -2.263457900000     0.892443200000     3.200163500000
 C     -1.487131600000     3.619387700000    -0.909480900000
 C     -0.291917800000     2.652513900000    -2.642563300000
 C     -3.477917100000     4.134693800000     2.090972600000
 C      0.127000400000    -1.871679600000     3.001613800000
 C      1.444003700000    -1.361631600000     3.015776000000
 C     -0.132883300000    -3.178291500000     2.535560100000
 C      0.269510500000     1.412680300000    -3.242514600000
 C     -0.067558800000     1.066251700000    -4.573720100000
 C      1.127556400000     0.582298200000    -2.479286800000
 C      2.533567600000    -2.198773700000     2.568574400000
 C      1.672338100000    -0.614227400000    -3.081068900000
 C      0.965315800000    -4.005179200000     2.087910900000
 C      0.511454500000    -0.117048200000    -5.169413500000
 C     -1.906961100000     2.218015700000     1.112109700000
 C      1.363351000000    -0.920931100000    -4.408711400000
 C      2.265696400000    -3.495427500000     2.120872600000
 C     -0.123385300000     3.905808600000    -3.256361300000
 C     -1.699470100000    -1.349190700000     4.658056100000
 C      1.505252600000     0.875087700000    -1.132719000000
 C      1.755581800000    -0.046470200000     3.477531600000
 C     -1.004814000000     1.806906600000    -5.359117000000
 C     -1.453626200000    -3.716441400000     2.450364000000
 C     -3.007067200000     0.644021500000     4.358874600000
 C     -1.406412000000     4.893551800000    -1.480417100000
 C      2.520831100000    -1.461833600000    -2.307614500000
 C      3.862424900000    -1.679642900000     2.594061200000
 C      0.182689600000    -0.453837100000    -6.516558200000
 C      0.692026000000    -5.322742300000     1.613667300000
 C     -2.715973700000    -0.502215000000     5.092885900000
 C     -0.697185200000     5.030706200000    -2.670697100000
 C      2.320089300000     0.032379100000    -0.420678000000
 C      3.047204600000     0.415726000000     3.484193100000
 C     -1.304214000000     1.443688200000    -6.647835800000
 C      2.829728300000    -1.155646000000    -1.009460600000
 C     -1.674171300000    -4.987115900000     1.983885600000
 C      4.116078800000    -0.407212000000     3.034583500000
 C     -0.589224300000    -5.805466900000     1.566065600000
 C     -0.692994800000     0.307814800000    -7.244026100000
 N     -0.953691000000     2.526170100000    -1.481580700000
 N     -1.279496000000     0.078193100000     2.775391100000
 N     -3.322377800000     3.050015700000     2.856325900000
 N     -2.921029600000     4.378671900000     0.900191800000
 H      1.120982100000     1.771313400000    -0.662620000000
 H     -1.273102400000     1.437170800000     0.713214100000
 H     -1.504429600000     2.661669900000    -4.916461000000
 H      0.949638300000     0.595172300000     3.814240600000
 H     -2.292766600000    -3.096054400000     2.747850900000
 H      2.575729600000     0.269264600000     0.607153600000
 H      1.789132300000    -1.815957500000    -4.858487200000
 H      3.089840500000    -4.122082900000     1.785381800000
 H     -3.780339200000     1.343898000000     4.655053800000
 H     -1.874059900000     5.734374500000    -0.980524900000
 H      0.451883000000     3.983386400000    -4.173352400000
 H      3.465196100000    -1.811805000000    -0.423231000000
 H     -1.438048300000    -2.246309200000     5.210556100000
 H      4.672460600000    -2.320214900000     2.253369500000
 H      2.912178500000    -2.361476100000    -2.776748600000
 H      1.528117500000    -5.934753000000     1.284066400000
 H      0.639591100000    -1.340620500000    -6.949318400000
 H     -4.128614000000     4.912859800000     2.486046000000
 H      3.258843100000     1.421912400000     3.834711100000
 H     -2.688227600000    -5.371812300000     1.922157900000
 H     -2.026536500000     2.022847100000    -7.216364600000
 H      5.131759800000    -0.022418700000     3.044260300000
 H     -0.783808400000    -6.809379500000     1.199771000000
 H     -0.937433100000     0.038929900000    -8.267680900000
 H     -0.582395800000     6.006937600000    -3.133530900000
 H     -3.270518700000    -0.731351300000     5.998577700000

 1 5 1.0 18 1.0 46 2.0 
 2 4 1.0 18 2.0 45 1.0 
 3 8 1.0 22 2.0 44 1.0 
 4 27 1.0 44 2.0 
 5 28 1.0 43 2.0 
 6 11 1.0 21 2.0 43 1.0 
 7 45 2.0 46 1.0 64 1.0 
 8 9 1.0 10 2.0 
 9 14 2.0 24 1.0 
 10 16 1.0 26 1.0 
 11 12 2.0 13 1.0 
 12 17 1.0 25 1.0 
 13 15 2.0 23 1.0 
 14 20 1.0 30 1.0 
 15 19 1.0 29 1.0 
 16 20 2.0 32 1.0 
 17 19 2.0 31 1.0 
 18 48 1.0 
 19 53 1.0 
 20 54 1.0 
 21 34 1.0 57 1.0 
 22 33 1.0 59 1.0 
 23 35 2.0 47 1.0 
 24 36 2.0 50 1.0 
 25 37 2.0 49 1.0 
 26 39 2.0 51 1.0 
 27 33 2.0 55 1.0 
 28 34 2.0 56 1.0 
 29 38 2.0 61 1.0 
 30 40 2.0 60 1.0 
 31 42 2.0 63 1.0 
 32 41 2.0 62 1.0 
 33 72 1.0 
 34 71 1.0 
 35 38 1.0 52 1.0 
 36 40 1.0 65 1.0 
 37 42 1.0 67 1.0 
 38 58 1.0 
 39 41 1.0 66 1.0 
 40 68 1.0 
 41 69 1.0 
 42 70 1.0 
 43 
 44 
 45 
 46 
 47 
 48 
 49 
 50 
 51 
 52 
 53 
 54 
 55 
 56 
 57 
 58 
 59 
 60 
 61 
 62 
 63 
 64 
 65 
 66 
 67 
 68 
 69 
 70 
 71 
 72 







