%mem=100GB
%nproc=28
#p WB97XD/6-31G** geom=conn nosymm

handle gaussian file - write gjf file with lines

0 1
 C      2.817314400000    -0.791213500000    -1.271589300000
 C      3.274204200000    -1.867828700000    -0.522533900000
 C      2.552641000000    -3.024320200000    -0.941573100000
 C      1.679726100000    -2.638931800000    -1.945444500000
 C      3.178377000000     0.688382100000    -1.262208500000
 C      4.677793200000     0.836796800000    -1.641887400000
 C      2.313721300000     1.423974700000    -2.270905500000
 C      2.387523900000     1.529906800000    -3.650847800000
 C      0.715562900000    -3.409584500000    -2.821408300000
 C      0.397979000000    -4.773312000000    -2.165327900000
 C      1.351545000000    -3.659548200000    -4.208249400000
 C     -0.558419000000    -2.610497800000    -2.987651300000
 C     -1.332333000000    -2.295554900000    -4.092958500000
 N      1.858141500000    -1.284199000000    -2.122336300000
 N      1.147302500000     2.049274600000    -1.889407700000
 N     -1.205829800000    -2.081760600000    -1.892284700000
 C     -1.755041500000     2.605758500000    -1.933133200000
 C     -2.655906200000     2.993434800000    -0.954925800000
 C     -3.378965900000     1.835353200000    -0.543759700000
 C     -2.896120600000     0.755813400000    -1.271779400000
 C     -0.783344000000     3.380798700000    -2.797465500000
 C     -0.454293400000     4.732529600000    -2.121932800000
 C     -1.417910900000     3.656148400000    -4.180209100000
 C      0.484249700000     2.575117600000    -2.977270800000
 C      1.238274400000     2.250071800000    -4.093173400000
 C     -3.234265300000    -0.728477000000    -1.238941400000
 C     -4.739356500000    -0.905691400000    -1.580103100000
 C     -2.381453000000    -1.463914300000    -2.257882300000
 C     -2.477352300000    -1.578063500000    -3.635789800000
 N     -1.918559900000     1.248125000000    -2.102093600000
 C      2.943531700000     1.292873500000     0.115602200000
 C      3.042155000000     2.623436800000     0.547910600000
 N      2.554332500000     0.540866700000     1.183335800000
 C      2.697295500000     2.649917600000     1.927619100000
 C      2.397162800000     1.335607500000     2.301756800000
 C     -2.955394600000    -1.308820200000     0.141597500000
 C     -3.012980800000    -2.634088900000     0.597135600000
 N     -2.551475400000    -0.531877600000     1.185573300000
 C     -2.626999600000    -2.631027700000     1.966272600000
 C     -2.345153200000    -1.304777400000     2.311238900000
 C      2.047793300000     0.781382900000     3.595116000000
 C     -1.968527100000    -0.721308400000     3.583845300000
 O      1.823859100000     1.431843900000     4.608324000000
 O     -1.709331900000    -1.347600700000     4.603745500000
 O      2.014787000000    -0.584819000000     3.549878800000
 O     -1.954403200000     0.644144300000     3.511043400000
 C     -1.648934600000     1.353155200000     4.750464300000
 C      1.731672000000    -1.267039400000     4.809985900000
 C     -2.188030400000     2.761841800000     4.599233600000
 C      2.293807800000    -2.669989200000     4.692123800000
 C     -2.509828600000    -3.834559300000     2.853695300000
 C      2.640227600000     3.868308500000     2.800768700000
 C      1.232724200000     4.492990800000     2.833596400000
 C     -1.087701600000    -4.426253000000     2.838853400000
 C     -3.428309100000    -3.844173000000    -0.190449800000
 C      3.458168000000     3.811963000000    -0.271457500000
 H      2.669992800000    -4.025938500000    -0.552691400000
 H      4.976746500000     1.887516100000    -1.623916700000
 H      4.852055700000     0.432041600000    -2.642748200000
 H      5.291796600000     0.278817200000    -0.930638300000
 H      3.175232500000     1.130966900000    -4.274566700000
 H     -0.305119500000    -5.328319300000    -2.792671800000
 H     -0.048443400000    -4.639760700000    -1.175485200000
 H      1.311470300000    -5.366882400000    -2.054731600000
 H      1.591220600000    -2.714879900000    -4.705687300000
 H      0.667699800000    -4.226725600000    -4.848696300000
 H      2.275215100000    -4.232330800000    -4.088528600000
 H     -1.111507100000    -2.562977800000    -5.116483200000
 H      0.857897100000     2.150108700000    -0.923691900000
 H     -0.898654400000    -2.174974700000    -0.931117700000
 H     -2.790939500000     3.997726400000    -0.578896200000
 H     -4.164886900000     1.799887800000     0.198825800000
 H      0.252842900000     5.291014500000    -2.741731100000
 H     -0.008949700000     4.581806700000    -1.134041600000
 H     -1.362829100000     5.331818700000    -2.002447000000
 H     -1.665787800000     2.720562300000    -4.690564900000
 H     -0.729885600000     4.227241700000    -4.812726900000
 H     -2.336948300000     4.234242900000    -4.051173700000
 H      1.001897900000     2.513244600000    -5.114269000000
 H     -4.943570200000    -0.520991000000    -2.583135900000
 H     -5.345876800000    -0.345856400000    -0.863801900000
 H     -5.020929800000    -1.960440400000    -1.537404900000
 H     -3.275917100000    -1.184445500000    -4.248997500000
 H     -1.416465500000     0.676377800000    -2.772053700000
 H      2.394365300000    -0.460155800000     1.149727000000
 H     -2.421068300000     0.472675400000     1.132536400000
 H     -0.564762300000     1.342858000000     4.892133000000
 H     -2.117782400000     0.812049200000     5.576124500000
 H      0.648202200000    -1.271138500000     4.957382300000
 H      2.197144400000    -0.696133600000     5.617130700000
 H     -1.745167600000     3.259588500000     3.731561900000
 H     -1.938729700000     3.345193800000     5.491847400000
 H     -3.276037200000     2.755063700000     4.480047900000
 H      1.852335300000    -3.199343100000     3.842657200000
 H      2.062134800000    -3.232684700000     5.602627800000
 H      3.380540700000    -2.648047900000     4.563371100000
 H     -3.226857100000    -4.596542900000     2.525175700000
 H     -2.765353700000    -3.556236800000     3.879949600000
 H      3.361182200000     4.608625700000     2.433767100000
 H      2.929567900000     3.598663700000     3.820376000000
 H      0.899873200000     4.768939800000     1.826541000000
 H      1.218716600000     5.392661700000     3.458484900000
 H      0.517405200000     3.776599000000     3.245722400000
 H     -0.790524600000    -4.714027500000     1.823931400000
 H     -1.026102500000    -5.312880800000     3.479257300000
 H     -0.372436300000    -3.685515900000     3.205927300000
 H     -3.393880800000    -3.652910900000    -1.266277000000
 H     -4.450045800000    -4.155981700000     0.062477900000
 H     -2.770792000000    -4.695424100000     0.016839900000
 H      3.375241400000     3.608411100000    -1.342456100000
 H      4.497222800000     4.099181700000    -0.064124600000
 H      2.832142800000     4.682859400000    -0.049337300000
 H      4.046213800000    -1.833537300000     0.234563400000
 H      1.374243400000    -0.712246900000    -2.805627600000

 1 2 2.0 5 1.0 14 1.0 
 2 3 1.0 113 1.0 
 3 4 2.0 57 1.0 
 4 9 1.0 14 1.0 
 5 6 1.0 7 1.0 31 1.0 
 6 58 1.0 59 1.0 60 1.0 
 7 8 2.0 15 1.0 
 8 25 1.0 61 1.0 
 9 10 1.0 11 1.0 12 1.0 
 10 62 1.0 63 1.0 64 1.0 
 11 65 1.0 66 1.0 67 1.0 
 12 13 2.0 16 1.0 
 13 29 1.0 68 1.0 
 14 114 1.0 
 15 24 1.0 69 1.0 
 16 28 1.0 70 1.0 
 17 18 2.0 21 1.0 30 1.0 
 18 19 1.0 71 1.0 
 19 20 2.0 72 1.0 
 20 26 1.0 30 1.0 
 21 22 1.0 23 1.0 24 1.0 
 22 73 1.0 74 1.0 75 1.0 
 23 76 1.0 77 1.0 78 1.0 
 24 25 2.0 
 25 79 1.0 
 26 27 1.0 28 1.0 36 1.0 
 27 80 1.0 81 1.0 82 1.0 
 28 29 2.0 
 29 83 1.0 
 30 84 1.0 
 31 32 2.0 33 1.0 
 32 34 1.0 56 1.0 
 33 35 1.0 85 1.0 
 34 35 2.0 52 1.0 
 35 41 1.0 
 36 37 2.0 38 1.0 
 37 39 1.0 55 1.0 
 38 40 1.0 86 1.0 
 39 40 2.0 51 1.0 
 40 42 1.0 
 41 43 2.0 45 1.0 
 42 44 2.0 46 1.0 
 43 
 44 
 45 48 1.0 
 46 47 1.0 
 47 49 1.0 87 1.0 88 1.0 
 48 50 1.0 89 1.0 90 1.0 
 49 91 1.0 92 1.0 93 1.0 
 50 94 1.0 95 1.0 96 1.0 
 51 54 1.0 97 1.0 98 1.0 
 52 53 1.0 99 1.0 100 1.0 
 53 101 1.0 102 1.0 103 1.0 
 54 104 1.0 105 1.0 106 1.0 
 55 107 1.0 108 1.0 109 1.0 
 56 110 1.0 111 1.0 112 1.0 
 57 
 58 
 59 
 60 
 61 
 62 
 63 
 64 
 65 
 66 
 67 
 68 
 69 
 70 
 71 
 72 
 73 
 74 
 75 
 76 
 77 
 78 
 79 
 80 
 81 
 82 
 83 
 84 
 85 
 86 
 87 
 88 
 89 
 90 
 91 
 92 
 93 
 94 
 95 
 96 
 97 
 98 
 99 
 100 
 101 
 102 
 103 
 104 
 105 
 106 
 107 
 108 
 109 
 110 
 111 
 112 
 113 
 114 







