%mem=100GB
%nproc=28
#p opt(nomicro,recalc=5) freq geom=conn external="/share/home/jwweng/XO/stable20240408/external_uxo.py" nosymm

handle gaussian file - write gjf file with lines

0 1
 C      0.702785100000    -1.186464400000     3.359462500000
 C      1.433256300000     0.000000000000     3.342985000000
 C      0.702785100000     1.186464400000     3.359462500000
 C     -0.702785100000     1.186464400000     3.359462500000
 C     -1.433256300000     0.000000000000     3.342985000000
 C     -0.702785100000    -1.186464400000     3.359462500000
 C      1.139075900000     2.653437100000     3.361923400000
 C      0.702933800000     3.232106500000     2.014026100000
 C     -0.702933800000     3.232106500000     2.014026100000
 C     -1.139075900000     2.653437100000     3.361923400000
 C      1.433293900000     3.683326700000     0.916937600000
 C      0.702726200000     4.164835700000    -0.167694300000
 C     -0.702726200000     4.164835700000    -0.167694300000
 C     -1.433293900000     3.683326700000     0.916937600000
 C     -0.000000000000     3.240712600000     4.254772300000
 C      1.139075900000    -2.653437100000     3.361923400000
 C     -1.139075900000    -2.653437100000     3.361923400000
 C     -0.702933800000    -3.232106500000     2.014026100000
 C      0.702933800000    -3.232106500000     2.014026100000
 C     -1.433293900000    -3.683326700000     0.916937600000
 C     -0.702726200000    -4.164835700000    -0.167694300000
 C      0.702726200000    -4.164835700000    -0.167694300000
 C      1.433293900000    -3.683326700000     0.916937600000
 C     -0.000000000000    -3.240712600000     4.254772300000
 C      1.140265900000    -4.728893500000    -1.521295500000
 C      0.703604500000    -3.699195800000    -2.564648200000
 C     -0.703604500000    -3.699195800000    -2.564648200000
 C     -1.140265900000    -4.728893500000    -1.521295500000
 C      1.415400400000    -2.844031100000    -3.389415500000
 C      0.696809900000    -1.985236600000    -4.236312600000
 C     -0.696809900000    -1.985236600000    -4.236312600000
 C     -1.415400400000    -2.844031100000    -3.389415500000
 C      0.000000000000    -5.776235400000    -1.726908100000
 C     -1.140265900000     4.728893500000    -1.521295500000
 C     -0.703604500000     3.699195800000    -2.564648200000
 C      0.703604500000     3.699195800000    -2.564648200000
 C      1.140265900000     4.728893500000    -1.521295500000
 C     -1.415400400000     2.844031100000    -3.389415500000
 C     -0.696809900000     1.985236600000    -4.236312600000
 C      0.696809900000     1.985236600000    -4.236312600000
 C      1.415400400000     2.844031100000    -3.389415500000
 C      0.000000000000     5.776235400000    -1.726908100000
 H      2.521019400000     0.000000000000     3.340469100000
 H     -2.521019400000     0.000000000000     3.340469100000
 H      2.170707100000     2.848498600000     3.658391100000
 H     -2.170707100000     2.848498600000     3.658391100000
 H      2.521010400000     3.678706600000     0.914780200000
 H     -2.521010400000     3.678706600000     0.914780200000
 H     -0.000000000000     2.827499100000     5.268403800000
 H     -0.000000000000     4.335153300000     4.276793700000
 H      2.170707100000    -2.848498600000     3.658391100000
 H     -2.170707100000    -2.848498600000     3.658391100000
 H     -2.521010400000    -3.678706600000     0.914780200000
 H      2.521010400000    -3.678706600000     0.914780200000
 H     -0.000000000000    -2.827499100000     5.268403800000
 H     -0.000000000000    -4.335153300000     4.276793700000
 H      2.171690900000    -5.077509500000    -1.588554800000
 H     -2.171690900000    -5.077509500000    -1.588554800000
 H      2.502570600000    -2.835590600000    -3.391308400000
 H      1.234042100000    -1.313043600000    -4.898932800000
 H     -1.234042100000    -1.313043600000    -4.898932800000
 H     -2.502570600000    -2.835590600000    -3.391308400000
 H      0.000000000000    -6.557125800000    -0.960207000000
 H      0.000000000000    -6.212104300000    -2.731026300000
 H     -2.171690900000     5.077509500000    -1.588554800000
 H      2.171690900000     5.077509500000    -1.588554800000
 H     -2.502570600000     2.835590600000    -3.391308400000
 H     -1.234042100000     1.313043600000    -4.898932800000
 H      1.234042100000     1.313043600000    -4.898932800000
 H      2.502570600000     2.835590600000    -3.391308400000
 H      0.000000000000     6.557125800000    -0.960207000000
 H      0.000000000000     6.212104300000    -2.731026300000

 1 2 1.0 6 2.0 16 1.0 
 2 3 2.0 43 1.0 
 3 4 1.0 7 1.0 
 4 5 2.0 10 1.0 
 5 6 1.0 44 1.0 
 6 17 1.0 
 7 8 1.0 15 1.0 45 1.0 
 8 9 2.0 11 1.0 
 9 10 1.0 14 1.0 
 10 15 1.0 46 1.0 
 11 12 2.0 47 1.0 
 12 13 1.0 37 1.0 
 13 14 2.0 34 1.0 
 14 48 1.0 
 15 49 1.0 50 1.0 
 16 19 1.0 24 1.0 51 1.0 
 17 18 1.0 24 1.0 52 1.0 
 18 19 2.0 20 1.0 
 19 23 1.0 
 20 21 2.0 53 1.0 
 21 22 1.0 28 1.0 
 22 23 2.0 25 1.0 
 23 54 1.0 
 24 55 1.0 56 1.0 
 25 26 1.0 33 1.0 57 1.0 
 26 27 1.0 29 2.0 
 27 28 1.0 32 2.0 
 28 33 1.0 58 1.0 
 29 30 1.0 59 1.0 
 30 31 2.0 60 1.0 
 31 32 1.0 61 1.0 
 32 62 1.0 
 33 63 1.0 64 1.0 
 34 35 1.0 42 1.0 65 1.0 
 35 36 1.0 38 2.0 
 36 37 1.0 41 2.0 
 37 42 1.0 66 1.0 
 38 39 1.0 67 1.0 
 39 40 2.0 68 1.0 
 40 41 1.0 69 1.0 
 41 70 1.0 
 42 71 1.0 72 1.0 
 43 
 44 
 45 
 46 
 47 
 48 
 49 
 50 
 51 
 52 
 53 
 54 
 55 
 56 
 57 
 58 
 59 
 60 
 61 
 62 
 63 
 64 
 65 
 66 
 67 
 68 
 69 
 70 
 71 
 72 







