%mem=100GB
%nproc=28
#p WB97XD/6-31G** geom=conn nosymm

handle gaussian file - write gjf file with lines

0 1
 C     -0.735376400000     2.323270300000     0.598804000000
 C      0.735376400000    -2.323270300000     0.598804000000
 C     -0.102691900000    -0.774001000000    -5.402374000000
 C      0.102691900000     0.774001000000    -5.402374000000
 C     -0.545810100000     3.883428500000     0.512150000000
 C      0.545810100000    -3.883428500000     0.512150000000
 C      0.524279400000    -1.387955000000    -6.658174000000
 C     -0.524279400000     1.387955000000    -6.658174000000
 C     -1.662875300000    -1.670728600000    -3.063276700000
 C      1.662875300000     1.670728600000    -3.063276700000
 C     -0.076978200000    -0.763181800000    -7.923906400000
 C      0.076978200000     0.763181800000    -7.923906400000
 C      1.892699100000     1.756774400000     5.026794000000
 C     -1.892699100000    -1.756774400000     5.026794000000
 C      4.415270600000    -1.423637100000     3.991721300000
 C     -4.415270600000     1.423637100000     3.991721300000
 C     -1.682933700000     1.791834400000     2.656864500000
 C      1.682933700000    -1.791834400000     2.656864500000
 C     -2.193530100000     2.010239400000     0.494036500000
 C      2.193530100000    -2.010239400000     0.494036500000
 C      0.464708600000    -1.881285000000     2.019533900000
 C     -0.464708600000     1.881285000000     2.019533900000
 C     -0.612308600000     1.719505400000     4.785969900000
 C      0.612308600000    -1.719505400000     4.785969900000
 C      0.595970500000    -1.731349500000    -1.846295200000
 C     -0.595970500000     1.731349500000    -1.846295200000
 C      0.722489400000     1.840653300000     2.776776600000
 C     -0.722489400000    -1.840653300000     2.776776600000
 C     -0.068461200000    -1.769519800000    -0.563877400000
 C      0.068461200000     1.769519800000    -0.563877400000
 C      1.848628500000    -1.690905300000     4.045605700000
 C     -1.848628500000     1.690905300000     4.045605700000
 N     -0.472249200000     1.333585900000    -4.189359700000
 N      0.472249200000    -1.333585900000    -4.189359700000
 C      0.653162200000     1.770819100000     4.175287800000
 C     -0.653162200000    -1.770819100000     4.175287800000
 C      0.165357800000     1.549324700000    -3.034334800000
 C     -0.165357800000    -1.549324700000    -3.034334800000
 C      2.071558900000    -1.752580800000    -1.898267900000
 C     -2.071558900000     1.752580800000    -1.898267900000
 C      2.842562200000    -1.827685800000    -0.666576400000
 C     -2.842562200000     1.827685800000    -0.666576400000
 C     -3.114933100000     1.563833300000     4.746412100000
 C      3.114933100000    -1.563833300000     4.746412100000
 O      2.748373800000    -1.892834000000     1.738860100000
 O     -2.748373800000     1.892834000000     1.738860100000
 O      0.644278500000    -1.668082000000     6.123209600000
 O     -0.644278500000     1.668082000000     6.123209600000
 O     -1.928080900000    -1.881474300000     2.172518000000
 O      1.928080900000     1.881474300000     2.172518000000
 O     -3.149634900000     1.547166800000     5.999485700000
 O      3.149634900000    -1.547166800000     5.999485700000
 O      2.702417100000    -1.614818100000    -2.984434500000
 O     -2.702417100000     1.614818100000    -2.984434500000
 O     -1.262143700000    -1.457553400000    -0.361686000000
 O      1.262143700000     1.457553400000    -0.361686000000
 H     -1.631521100000     1.624020700000     6.365303600000
 H      1.631521100000    -1.624020700000     6.365303600000
 H     -1.512062800000     1.356318500000    -4.067296400000
 H      1.512062800000    -1.356318500000    -4.067296400000
 H      1.778782800000     1.736907800000     1.187403700000
 H     -1.778782800000    -1.736907800000     1.187403700000
 H     -1.180524900000    -0.960239400000    -5.407480600000
 H      1.180524900000     0.960239400000    -5.407480600000
 H      3.907494000000    -1.638391700000    -0.730644900000
 H     -3.907494000000     1.638391700000    -0.730644900000
 H     -1.609701400000     1.219355900000    -6.634412700000
 H      1.609701400000    -1.219355900000    -6.634412700000
 H      0.367203300000    -2.471687300000    -6.643647600000
 H     -0.367203300000     2.471687300000    -6.643647600000
 H     -1.143612900000    -1.020751800000    -7.981126000000
 H      1.143612900000     1.020751800000    -7.981126000000
 H     -2.003685600000    -2.323846500000    -2.263075700000
 H      2.003685600000     2.323846500000    -2.263075700000
 H      0.400287200000    -1.193118700000    -8.810979900000
 H     -0.400287200000     1.193118700000    -8.810979900000
 H     -2.151816200000    -0.704166200000    -2.913048200000
 H      2.151816200000     0.704166200000    -2.913048200000
 H     -2.770305000000    -1.539773100000     4.416252100000
 H      2.770305000000     1.539773100000     4.416252100000
 H     -1.982545500000    -2.073921800000    -4.027955300000
 H      1.982545500000     2.073921800000    -4.027955300000
 H     -1.805806600000    -1.014383700000     5.823471700000
 H      1.805806600000     1.014383700000     5.823471700000
 H      5.212714700000    -1.243623000000     4.713878200000
 H     -5.212714700000     1.243623000000     4.713878200000
 H      1.159697500000    -4.361781100000     1.279058500000
 H     -1.159697500000     4.361781100000     1.279058500000
 H     -4.359869600000     0.600922500000     3.272378500000
 H      4.359869600000    -0.600922500000     3.272378500000
 H     -0.505168400000    -4.122301900000     0.694957100000
 H      0.505168400000     4.122301900000     0.694957100000
 H     -0.842315500000     4.246802000000    -0.475545600000
 H      0.842315500000    -4.246802000000    -0.475545600000
 H      4.630216100000    -2.332537800000     3.420324500000
 H     -4.630216100000     2.332537800000     3.420324500000
 H      2.044360900000     2.729596300000     5.510718100000
 H     -2.044360900000    -2.729596300000     5.510718100000

 1 5 1.0 19 1.0 22 1.0 30 1.0 
 2 6 1.0 20 1.0 21 1.0 29 1.0 
 3 4 1.0 7 1.0 34 1.0 63 1.0 
 4 8 1.0 33 1.0 64 1.0 
 5 88 1.0 92 1.0 93 1.0 
 6 87 1.0 91 1.0 94 1.0 
 7 11 1.0 68 1.0 69 1.0 
 8 12 1.0 67 1.0 70 1.0 
 9 38 1.0 73 1.0 77 1.0 81 1.0 
 10 37 1.0 74 1.0 78 1.0 82 1.0 
 11 12 1.0 71 1.0 75 1.0 
 12 72 1.0 76 1.0 
 13 35 1.0 80 1.0 84 1.0 97 1.0 
 14 36 1.0 79 1.0 83 1.0 98 1.0 
 15 44 1.0 85 1.0 90 1.0 95 1.0 
 16 43 1.0 86 1.0 89 1.0 96 1.0 
 17 22 1.0 32 2.0 46 1.0 
 18 21 2.0 31 1.0 45 1.0 
 19 42 2.0 46 1.0 
 20 41 2.0 45 1.0 
 21 28 1.0 
 22 27 2.0 
 23 32 1.0 35 2.0 48 1.0 
 24 31 2.0 36 1.0 47 1.0 
 25 29 1.0 38 2.0 39 1.0 
 26 30 1.0 37 2.0 40 1.0 
 27 35 1.0 50 1.0 
 28 36 2.0 49 1.0 
 29 55 2.0 
 30 56 2.0 
 31 44 1.0 
 32 43 1.0 
 33 37 1.0 59 1.0 
 34 38 1.0 60 1.0 
 35 
 36 
 37 
 38 
 39 41 1.0 53 2.0 
 40 42 1.0 54 2.0 
 41 65 1.0 
 42 66 1.0 
 43 51 2.0 
 44 52 2.0 
 45 
 46 
 47 58 1.0 
 48 57 1.0 
 49 62 1.0 
 50 61 1.0 
 51 
 52 
 53 
 54 
 55 
 56 
 57 
 58 
 59 
 60 
 61 
 62 
 63 
 64 
 65 
 66 
 67 
 68 
 69 
 70 
 71 
 72 
 73 
 74 
 75 
 76 
 77 
 78 
 79 
 80 
 81 
 82 
 83 
 84 
 85 
 86 
 87 
 88 
 89 
 90 
 91 
 92 
 93 
 94 
 95 
 96 
 97 
 98 







