%mem=100GB
%nproc=28
#p opt(nomicro,recalc=5) freq geom=conn external="/share/home/jwweng/XO/stable20240408/external_uxo.py" nosymm

handle gaussian file - write gjf file with lines

0 1
 C           -3.80844590          -2.74907400           2.30354870
 C           -2.75159440          -2.31859760           1.49000810
 C           -1.54541490          -3.04558960           1.49001590
 C           -1.43221880          -4.18144040           2.30312750
 C           -2.49532750          -4.60885950           3.09528530
 C           -3.68953280          -3.88874770           3.09564780
 C           -0.36545610          -2.59477410           0.70693290
 C            0.79352700          -2.22204190           1.38206720
 C            1.96395280          -1.81287240           0.72498140
 C            1.96395280          -1.81287240          -0.72498140
 C            0.79352700          -2.22204190          -1.38206720
 C           -0.36545610          -2.59477410          -0.70693290
 C            3.17626890          -1.45886470           1.47344720
 C            4.18607210          -0.90337440           0.71510980
 C            4.18607210          -0.90337440          -0.71510980
 C            3.17626890          -1.45886470          -1.47344720
 C            5.53294670          -0.85666300          -1.14824310
 C            6.36436730          -0.82843560           0.00000000
 C            5.53294670          -0.85666300           1.14824310
 C            7.66508780          -1.31009880           0.00000000
 C            8.17950370          -1.64303470          -1.30888810
 C            7.36626260          -1.67130100          -2.43475660
 C            5.95483650          -1.36934400          -2.36839010
 C            4.88464540          -1.76885400          -3.24464050
 C            3.56072490          -1.81448200          -2.81497460
 C            8.17950370          -1.64303470           1.30888810
 C            7.36626260          -1.67130100           2.43475660
 C            5.95483650          -1.36934400           2.36839010
 C            4.88464540          -1.76885400           3.24464050
 C            3.56072490          -1.81448200           2.81497460
 C           -1.54541490          -3.04558960          -1.49001590
 C           -2.75159440          -2.31859760          -1.49000810
 C           -3.80844590          -2.74907400          -2.30354870
 C           -3.68953280          -3.88874770          -3.09564780
 C           -2.49532750          -4.60885950          -3.09528530
 C           -1.43221880          -4.18144040          -2.30312750
 C           -2.90287810          -1.06453620           0.70697270
 C           -3.11605900           0.13406770           1.38220440
 C           -3.32297540           1.35649090           0.72496850
 C           -3.32297540           1.35649090          -0.72496850
 C           -3.11605900           0.13406770          -1.38220440
 C           -2.90287810          -1.06453620          -0.70697270
 C           -3.47163530           2.61054310          -1.47330330
 C           -3.85402780           3.69819070          -0.71521600
 C           -3.85402780           3.69819070           0.71521600
 C           -3.47163530           2.61054310           1.47330330
 C           -3.67684730           5.03428910           1.14835720
 C           -3.56703400           5.85891580           0.00000000
 C           -3.67684730           5.03428910          -1.14835720
 C           -3.05398070           2.93027850          -2.81372460
 C           -2.88003340           4.24339660          -3.24345460
 C           -3.09944970           5.36491290          -2.36792300
 C           -2.56710240           6.70643330          -2.43426970
 C           -2.46080150           7.51315680          -1.30854520
 C           -2.87546780           7.06131210           0.00000000
 C           -3.05398070           2.93027850           2.81372460
 C           -2.88003340           4.24339660           3.24345460
 C           -3.09944970           5.36491290           2.36792300
 C           -2.56710240           6.70643330           2.43426970
 C           -2.46080150           7.51315680           1.30854520
 H            5.11526650          -2.14001350          -4.24053090
 H            2.82120730          -2.22440820          -3.49777550
 H            2.82120730          -2.22440820           3.49777550
 H            5.11526650          -2.14001350           4.24053090
 H            7.79383970          -2.02273560           3.37100390
 H            9.21105820          -1.97270560           1.40936010
 H            9.21105820          -1.97270560          -1.40936010
 H            7.79383970          -2.02273560          -3.37100390
 H           -2.14791200           7.06892830          -3.37006720
 H           -1.96356250           8.47525230          -1.40854940
 H           -1.96356250           8.47525230           1.40854940
 H           -2.14791200           7.06892830           3.37006720
 H           -2.47123310           4.40938980           4.23743380
 H           -2.76654850           2.13287770           3.49386890
 H           -2.76654850           2.13287770          -3.49386890
 H           -2.47123310           4.40938980          -4.23743380
 H            0.77929730          -2.23119980           2.46863780
 H            0.77929730          -2.23119980          -2.46863780
 H           -3.12505350           0.11612760           2.46873620
 H           -3.12505350           0.11612760          -2.46873620
 H           -0.49576680          -4.73291110          -2.30153730
 H           -2.39076780          -5.49896690          -3.70909660
 H           -4.52508810          -4.21153640          -3.71012050
 H           -4.73317300          -2.17825370          -2.30287140
 H           -0.49576680          -4.73291110           2.30153730
 H           -2.39076780          -5.49896690           3.70909660
 H           -4.52508810          -4.21153640           3.71012050
 H           -4.73317300          -2.17825370           2.30287140

 1 2 1.0 6 2.0 88 1.0 
 2 3 2.0 37 1.0 
 3 4 1.0 7 1.0 
 4 5 2.0 85 1.0 
 5 6 1.0 86 1.0 
 6 87 1.0 
 7 8 2.0 12 1.0 
 8 9 1.0 77 1.0 
 9 10 2.0 13 1.0 
 10 11 1.0 16 1.0 
 11 12 2.0 78 1.0 
 12 31 1.0 
 13 14 2.0 30 1.0 
 14 15 1.0 19 1.0 
 15 16 2.0 17 1.0 
 16 25 1.0 
 17 18 1.0 23 2.0 
 18 19 1.0 20 2.0 
 19 28 2.0 
 20 21 1.0 26 1.0 
 21 22 2.0 67 1.0 
 22 23 1.0 68 1.0 
 23 24 1.0 
 24 25 2.0 61 1.0 
 25 62 1.0 
 26 27 2.0 66 1.0 
 27 28 1.0 65 1.0 
 28 29 1.0 
 29 30 2.0 64 1.0 
 30 63 1.0 
 31 32 2.0 36 1.0 
 32 33 1.0 42 1.0 
 33 34 2.0 84 1.0 
 34 35 1.0 83 1.0 
 35 36 2.0 82 1.0 
 36 81 1.0 
 37 38 2.0 42 1.0 
 38 39 1.0 79 1.0 
 39 40 2.0 46 1.0 
 40 41 1.0 43 1.0 
 41 42 2.0 80 1.0 
 42 
 43 44 2.0 50 1.0 
 44 45 1.0 49 1.0 
 45 46 2.0 47 1.0 
 46 56 1.0 
 47 48 1.0 58 2.0 
 48 49 1.0 55 2.0 
 49 52 2.0 
 50 51 2.0 75 1.0 
 51 52 1.0 76 1.0 
 52 53 1.0 
 53 54 2.0 69 1.0 
 54 55 1.0 70 1.0 
 55 60 1.0 
 56 57 2.0 74 1.0 
 57 58 1.0 73 1.0 
 58 59 1.0 
 59 60 2.0 72 1.0 
 60 71 1.0 
 61 
 62 
 63 
 64 
 65 
 66 
 67 
 68 
 69 
 70 
 71 
 72 
 73 
 74 
 75 
 76 
 77 
 78 
 79 
 80 
 81 
 82 
 83 
 84 
 85 
 86 
 87 
 88 







