%mem=100GB
%nproc=28
#p opt(nomicro,recalc=5) freq geom=conn external="/share/home/jwweng/XO/stable20240408/external_uxo.py" nosymm

handle gaussian file - write gjf file with lines

0 1
 C      2.946082100000     1.859355700000    -7.341207000000
 C      3.160674600000     0.724079800000    -8.118848300000
 C      2.843114600000    -0.526956100000    -7.595718400000
 C      2.327608400000    -0.595921200000    -6.299763000000
 N      2.130855400000     0.493475200000    -5.539748300000
 C      2.426664000000     1.697652900000    -6.055124100000
 C      1.955116700000    -1.942890600000    -5.725206000000
 O      2.087363300000    -2.977561900000    -6.374773400000
 C      2.165562200000     2.920145900000    -5.206298500000
 O      2.393574500000     4.053198400000    -5.623643900000
 N      1.470007000000    -1.857001100000    -4.453436000000
 C      1.014575400000    -2.917334400000    -3.623709400000
 C     -0.039411200000    -3.748590200000    -4.028963500000
 C     -0.492628300000    -4.724872800000    -3.130805200000
 C      0.056570800000    -4.880064400000    -1.858394200000
 C      1.109190300000    -4.031355300000    -1.491738600000
 C      1.600641500000    -3.053754900000    -2.350637000000
 C     -0.454122500000    -5.910990600000    -0.836985600000
 C     -1.761067800000    -6.593574800000    -1.308764900000
 C     -2.212358000000    -7.702786700000    -0.354074400000
 C     -1.144458400000    -8.798481600000    -0.268950400000
 C      0.192595100000    -8.205698000000     0.188615800000
 C      0.622907900000    -7.020555000000    -0.690638100000
 H     -1.023791200000    -9.259822000000    -1.259780600000
 H     -1.459215400000    -9.592864700000     0.417940200000
 C     -0.706305000000    -5.132015700000     0.464701500000
 C     -1.710381300000    -4.155077300000     0.479499400000
 C     -1.928536400000    -3.336339900000     1.583161700000
 C     -1.110826500000    -3.499971100000     2.717544500000
 C     -0.088875100000    -4.459637500000     2.739992700000
 C      0.086771600000    -5.261263400000     1.604319600000
 C     -3.009012200000    -2.284758200000     1.563145800000
 N     -1.300396200000    -2.610721300000     3.809608200000
 C     -1.552316100000    -2.937196000000     5.109852000000
 O     -1.670170100000    -4.077580400000     5.551895500000
 C      0.836046200000    -4.608589200000     3.917225300000
 C     -0.714533500000    -3.580511500000    -5.363121200000
 C      2.727580800000    -2.147470200000    -1.923791700000
 C     -1.670948700000    -1.725982000000     6.004762000000
 N     -1.498601200000    -0.513036800000     5.455058000000
 C     -1.563715400000     0.566703500000     6.250722600000
 C     -1.821443900000     0.478884600000     7.620365200000
 C     -2.014420300000    -0.781358500000     8.180820000000
 C     -1.933411400000    -1.906690300000     7.364353400000
 C     -1.325732200000     1.923729100000     5.631077800000
 O     -1.338118900000     2.950326200000     6.306128400000
 N      1.661197100000     2.610514700000    -3.977483700000
 C      1.295486100000     3.508502400000    -2.938301000000
 C      0.324274000000     4.497723400000    -3.148523600000
 C     -0.046172500000     5.300453300000    -2.060631700000
 C      0.504901900000     5.135434500000    -0.790286100000
 C      1.473488300000     4.137393300000    -0.621454500000
 C      1.881132900000     3.321336100000    -1.671542900000
 C      0.081871500000     5.971363000000     0.429874900000
 C     -1.152608300000     6.854308500000     0.125544300000
 C     -1.509171800000     7.774641900000     1.296704400000
 C     -0.345897500000     8.725144000000     1.599604400000
 C      0.927175900000     7.929585000000     1.907839400000
 C      1.254751400000     6.922245900000     0.794003600000
 H     -0.174281600000     9.371832200000     0.726903600000
 H     -0.592872800000     9.382482000000     2.441523900000
 C     -0.251354100000     4.963158500000     1.542063900000
 C     -1.342748500000     4.102943700000     1.364775500000
 C     -1.643313400000     3.093635500000     2.274066600000
 C     -0.820141300000     2.936902100000     3.405438600000
 C      0.287381800000     3.770616200000     3.615054300000
 C      0.543992600000     4.774241600000     2.671737800000
 C     -2.818107500000     2.175705000000     2.048773900000
 N     -1.098564400000     1.858313800000     4.287611000000
 C      1.215850100000     3.580258800000     4.783442300000
 C     -0.351694500000     4.675609700000    -4.480952500000
 C      2.918048400000     2.248029200000    -1.456798500000
 H     -1.341204100000    -1.611355300000     3.626783600000
 H      1.538662900000    -0.922938700000    -4.057428900000
 H     -2.323132000000    -4.003940100000    -0.405690300000
 H      0.900361000000    -5.979046700000     1.622012600000
 H     -1.321941500000    -5.349187500000    -3.447540400000
 H      1.542511700000    -4.119145100000    -0.498211800000
 H     -3.656876500000    -2.362432200000     2.443324700000
 H     -3.625240600000    -2.384181700000     0.666100500000
 H     -2.587754200000    -1.270015200000     1.561314300000
 H      1.148364500000    -3.629221000000     4.297425700000
 H      1.728078400000    -5.173111600000     3.631783100000
 H      0.335456400000    -5.125491800000     4.742637800000
 H      3.525208500000    -2.121972500000    -2.674446100000
 H      3.151551700000    -2.483813400000    -0.974281300000
 H      2.385377300000    -1.113061500000    -1.781982800000
 H     -0.889926500000    -2.521039200000    -5.582848000000
 H     -1.675486600000    -4.102256200000    -5.372327100000
 H     -0.086629200000    -3.972651400000    -6.169951500000
 H     -2.552632100000    -5.847360700000    -1.436418900000
 H     -1.581165100000    -7.039950900000    -2.295553600000
 H     -2.391678500000    -7.280991600000     0.643856400000
 H     -3.163874100000    -8.121781200000    -0.702142800000
 H      0.091692400000    -7.885421100000     1.231906700000
 H      0.978748100000    -8.970336400000     0.166156700000
 H      0.837814300000    -7.386163900000    -1.703138600000
 H      1.558448600000    -6.584009100000    -0.321647900000
 H     -2.060596200000    -2.915811300000     7.740056400000
 H     -2.218418300000    -0.885676700000     9.242471900000
 H      2.975117000000    -1.447768900000    -8.152832200000
 H      3.564742200000     0.813731500000    -9.122997000000
 H     -1.232585000000     0.928674800000     3.898130700000
 H      1.644505900000     1.611629500000    -3.787748100000
 H     -1.961819400000     4.199682800000     0.476315800000
 H      1.421704700000     5.392667800000     2.828405600000
 H     -0.813569500000     6.049052700000    -2.230018700000
 H      1.905145000000     3.975426300000     0.363450200000
 H     -3.460641300000     2.126460100000     2.934868000000
 H     -3.416961800000     2.519083700000     1.201677200000
 H     -2.494607000000     1.149218400000     1.827618700000
 H      1.432105600000     2.517806500000     4.943973600000
 H      2.158884500000     4.106174100000     4.610206900000
 H      0.762184600000     3.955722100000     5.706666800000
 H      3.715738200000     2.308282900000    -2.205371000000
 H      3.363439400000     2.338475900000    -0.462935200000
 H      2.482257700000     1.242120500000    -1.530562100000
 H     -0.619006500000     3.706268300000    -4.917356600000
 H     -1.262172100000     5.270987900000    -4.369904100000
 H      0.315585100000     5.171802600000    -5.193399500000
 H     -2.008034600000     6.227331300000    -0.148077400000
 H     -0.923417500000     7.479737100000    -0.747229700000
 H     -1.736113800000     7.170745300000     2.185307100000
 H     -2.414601100000     8.343183800000     1.053911900000
 H      0.788284600000     7.406968200000     2.861061000000
 H      1.780132600000     8.606880200000     2.038599300000
 H      1.510371700000     7.471867600000    -0.121215600000
 H      2.143411800000     6.334477600000     1.052131900000
 H     -1.858265600000     1.392893100000     8.202563800000
 H      3.161135800000     2.862129700000    -7.693117400000

 1 2 1.0 6 2.0 130 1.0 
 2 3 2.0 102 1.0 
 3 4 1.0 101 1.0 
 4 5 2.0 7 1.0 
 5 6 1.0 
 6 9 1.0 
 7 8 2.0 11 1.0 
 8 
 9 10 2.0 47 1.0 
 10 
 11 12 1.0 74 1.0 
 12 13 1.0 17 2.0 
 13 14 2.0 37 1.0 
 14 15 1.0 77 1.0 
 15 16 2.0 18 1.0 
 16 17 1.0 78 1.0 
 17 38 1.0 
 18 19 1.0 23 1.0 26 1.0 
 19 20 1.0 91 1.0 92 1.0 
 20 21 1.0 93 1.0 94 1.0 
 21 22 1.0 24 1.0 25 1.0 
 22 23 1.0 95 1.0 96 1.0 
 23 97 1.0 98 1.0 
 24 
 25 
 26 27 2.0 31 1.0 
 27 28 1.0 75 1.0 
 28 29 2.0 32 1.0 
 29 30 1.0 33 1.0 
 30 31 2.0 36 1.0 
 31 76 1.0 
 32 79 1.0 80 1.0 81 1.0 
 33 34 1.0 73 1.0 
 34 35 2.0 39 1.0 
 35 
 36 82 1.0 83 1.0 84 1.0 
 37 88 1.0 89 1.0 90 1.0 
 38 85 1.0 86 1.0 87 1.0 
 39 40 1.0 44 2.0 
 40 41 2.0 
 41 42 1.0 45 1.0 
 42 43 2.0 129 1.0 
 43 44 1.0 100 1.0 
 44 99 1.0 
 45 46 2.0 69 1.0 
 46 
 47 48 1.0 104 1.0 
 48 49 2.0 53 1.0 
 49 50 1.0 71 1.0 
 50 51 2.0 107 1.0 
 51 52 1.0 54 1.0 
 52 53 2.0 108 1.0 
 53 72 1.0 
 54 55 1.0 59 1.0 62 1.0 
 55 56 1.0 121 1.0 122 1.0 
 56 57 1.0 123 1.0 124 1.0 
 57 58 1.0 60 1.0 61 1.0 
 58 59 1.0 125 1.0 126 1.0 
 59 127 1.0 128 1.0 
 60 
 61 
 62 63 1.0 67 2.0 
 63 64 2.0 105 1.0 
 64 65 1.0 68 1.0 
 65 66 2.0 69 1.0 
 66 67 1.0 70 1.0 
 67 106 1.0 
 68 109 1.0 110 1.0 111 1.0 
 69 103 1.0 
 70 112 1.0 113 1.0 114 1.0 
 71 118 1.0 119 1.0 120 1.0 
 72 115 1.0 116 1.0 117 1.0 
 73 
 74 
 75 
 76 
 77 
 78 
 79 
 80 
 81 
 82 
 83 
 84 
 85 
 86 
 87 
 88 
 89 
 90 
 91 
 92 
 93 
 94 
 95 
 96 
 97 
 98 
 99 
 100 
 101 
 102 
 103 
 104 
 105 
 106 
 107 
 108 
 109 
 110 
 111 
 112 
 113 
 114 
 115 
 116 
 117 
 118 
 119 
 120 
 121 
 122 
 123 
 124 
 125 
 126 
 127 
 128 
 129 
 130 







