%mem=100GB
%nproc=28
#p opt(nomicro,recalc=5) freq geom=conn external="/share/home/jwweng/XO/stable20240408/external_uxo.py" nosymm

handle gaussian file - write gjf file with lines

0 1
 C      3.402993000000    -0.434026800000     4.468443900000
 C     -3.338847400000     0.654265800000    -4.610802400000
 C     -3.469323600000    -0.293688900000    -5.814302900000
 C      3.549859200000     0.379333200000     5.763583900000
 C      5.150632200000     1.622730600000     7.315522700000
 C     -3.404430000000    -0.511059800000    -8.357306500000
 C      4.995839700000     0.809768500000     6.025954000000
 C     -3.281902700000     0.427419000000    -7.152264300000
 C     -3.226219400000     0.204157100000    -9.701330200000
 C      6.596220600000     2.051933600000     7.590394400000
 C      6.740742800000     2.863769600000     8.881258300000
 C     -3.349387400000    -0.741753700000   -10.899796000000
 C     -1.261520900000    -0.827999800000     0.777274400000
 C      0.138947900000    -1.019885400000     2.592796200000
 C     -2.589028400000    -0.582610200000    -1.086047200000
 C     -2.281599000000    -1.580441000000     1.444157600000
 C     -2.009609000000    -2.044913400000     2.751097600000
 C     -3.492126100000    -1.808243500000     0.750844100000
 N      1.403570300000    -0.681686800000     3.089663600000
 N     -2.647064400000    -0.031979100000    -2.372060100000
 C     -0.801598000000    -1.774192000000     3.345588600000
 C     -3.666478600000    -1.316467100000    -0.519510100000
 C     -3.665750900000    -0.062053000000    -3.308301500000
 C      1.988487800000    -0.974598600000     4.308997100000
 N     -0.069123200000    -0.562169100000     1.365510700000
 N     -1.435548200000    -0.342835900000    -0.476901900000
 O      1.430570000000    -1.611581600000     5.194514100000
 O     -4.740571800000    -0.621285700000    -3.125513900000
 H      1.943863000000    -0.144467900000     2.419250300000
 H     -1.791863800000     0.457790500000    -2.614443400000
 H     -4.572638600000    -1.464008100000    -1.090516900000
 H     -0.546782800000    -2.106358800000     4.342446900000
 H     -2.765666600000    -2.618502200000     3.282134800000
 H     -4.284473400000    -2.376646400000     1.232293500000
 H     -4.062655600000     1.472248100000    -4.714758800000
 H      4.072324400000    -1.303349400000     4.509259000000
 H      3.179145200000    -0.229946900000     6.595086800000
 H     -4.457349300000    -0.765407100000    -5.773991100000
 H      2.904720600000     1.266313200000     5.708331500000
 H     -2.728547000000    -1.099196100000    -5.722186100000
 H      3.702239400000     0.166415100000     3.600780500000
 H     -2.338254400000     1.102693300000    -4.582925000000
 H     -4.028375800000     1.229837400000    -7.238053800000
 H      5.634803700000    -0.083269800000     6.079527200000
 H      4.779749200000     1.030185400000     8.163769300000
 H     -4.387048400000    -1.003202400000    -8.334902100000
 H     -2.656997800000    -1.312689900000    -8.270989600000
 H      4.511282400000     2.515507100000     7.261249900000
 H     -2.297817200000     0.917491600000    -7.172797400000
 H      5.364879200000     1.403006000000     5.176901100000
 H     -3.974163900000     1.004310800000    -9.785433100000
 H      7.233166100000     1.158519700000     7.644074900000
 H      6.964748700000     2.642710000000     6.740596600000
 H     -2.244378700000     0.696722300000    -9.720251100000
 H      6.406418400000     2.282910700000     9.748791600000
 H     -4.333735600000    -1.223978700000   -10.918854400000
 H     -2.592451400000    -1.533453700000   -10.853623700000
 H      6.135640200000     3.777068300000     8.839807600000
 H     -3.218903900000    -0.207061300000   -11.846686500000
 H      7.781389300000     3.157903300000     9.054647400000

 1 4 1.0 24 1.0 36 1.0 41 1.0 
 2 3 1.0 23 1.0 35 1.0 42 1.0 
 3 8 1.0 38 1.0 40 1.0 
 4 7 1.0 37 1.0 39 1.0 
 5 7 1.0 10 1.0 45 1.0 48 1.0 
 6 8 1.0 9 1.0 46 1.0 47 1.0 
 7 44 1.0 50 1.0 
 8 43 1.0 49 1.0 
 9 12 1.0 51 1.0 54 1.0 
 10 11 1.0 52 1.0 53 1.0 
 11 55 1.0 58 1.0 60 1.0 
 12 56 1.0 57 1.0 59 1.0 
 13 16 1.0 25 2.0 26 1.0 
 14 19 1.0 21 2.0 25 1.0 
 15 20 1.0 22 1.0 26 2.0 
 16 17 2.0 18 1.0 
 17 21 1.0 33 1.0 
 18 22 2.0 34 1.0 
 19 24 1.0 29 1.0 
 20 23 1.0 30 1.0 
 21 32 1.0 
 22 31 1.0 
 23 28 2.0 
 24 27 2.0 
 25 
 26 
 27 
 28 
 29 
 30 
 31 
 32 
 33 
 34 
 35 
 36 
 37 
 38 
 39 
 40 
 41 
 42 
 43 
 44 
 45 
 46 
 47 
 48 
 49 
 50 
 51 
 52 
 53 
 54 
 55 
 56 
 57 
 58 
 59 
 60 







